# Solution for model SBL-111-StripPacking-10
# Objective value = 3.8999999995999971e+01
c[B0,0] 19
c[B0,1] 19
c[B1,0] 37
c[B1,1] 5.5
c[B2,0] 52.5
c[B2,1] 6.5
c[B3,0] 58.5
c[B3,1] 3.5999999995999971e+01
c[B4,0] 91
c[B4,1] 10
c[B5,0] 31
c[B5,1] 2.2499999995999971e+01
c[B6,0] 7
c[B6,1] 2.6999999995999971e+01
c[B7,0] 50
c[B7,1] 14.5
c[B8,0] 47
c[B8,1] 28.5
c[B9,0] 60
c[B9,1] 13
h 3.8999999995999971e+01
delta[B0,B1] 0
delta[B0,B2] 0
delta[B0,B3] 0
delta[B0,B4] 0
delta[B0,B5] 0
delta[B0,B6] 1
delta[B0,B7] 0
delta[B0,B8] 0
delta[B0,B9] 0
delta[B1,B0] 1
delta[B1,B2] 0
delta[B1,B3] 1
delta[B1,B4] 0
delta[B1,B5] 1
delta[B1,B6] 1
delta[B1,B7] 1
delta[B1,B8] 1
delta[B1,B9] 0
delta[B2,B0] 0
delta[B2,B1] 0
delta[B2,B3] 1
delta[B2,B4] 0
delta[B2,B5] 1
delta[B2,B6] 1
delta[B2,B7] 1
delta[B2,B8] 1
delta[B2,B9] 0
delta[B3,B0] 0
delta[B3,B1] 0
delta[B3,B2] 0
delta[B3,B4] 0
delta[B3,B5] 1
delta[B3,B6] 1
delta[B3,B7] 0
delta[B3,B8] 0
delta[B3,B9] 0
delta[B4,B0] 0
delta[B4,B1] 0
delta[B4,B2] 0
delta[B4,B3] 0
delta[B4,B5] 1
delta[B4,B6] 1
delta[B4,B7] 1
delta[B4,B8] 1
delta[B4,B9] 1
delta[B5,B0] 0
delta[B5,B1] 0
delta[B5,B2] 1
delta[B5,B3] 1
delta[B5,B4] 1
delta[B5,B6] 1
delta[B5,B7] 0
delta[B5,B8] 0
delta[B5,B9] 0
delta[B6,B0] 1
delta[B6,B1] 1
delta[B6,B2] 1
delta[B6,B3] 1
delta[B6,B4] 1
delta[B6,B5] 1
delta[B6,B7] 0
delta[B6,B8] 0
delta[B6,B9] 0
delta[B7,B0] 0
delta[B7,B1] 0
delta[B7,B2] 0
delta[B7,B3] 1
delta[B7,B4] 1
delta[B7,B5] 0
delta[B7,B6] 0
delta[B7,B8] 1
delta[B7,B9] 0
delta[B8,B0] 0
delta[B8,B1] 0
delta[B8,B2] 0
delta[B8,B3] 1
delta[B8,B4] 1
delta[B8,B5] 0
delta[B8,B6] 0
delta[B8,B7] 0
delta[B8,B9] 0
delta[B9,B0] 0
delta[B9,B1] 0
delta[B9,B2] 0
delta[B9,B3] 1
delta[B9,B4] 1
delta[B9,B5] 0
delta[B9,B6] 0
delta[B9,B7] 0
delta[B9,B8] 0
